Route 1: 0 94 36 61 82 100 89 46 1 98 99 23 0
Route 2: 0 12 70 22 42 2 40 0
Route 3: 0 25 39 32 37 18 31 66 0
Route 4: 0 16 80 69 57 21 19 10 53 58 15 83 11 0
Route 5: 0 9 30 34 73 26 90 48 93 43 75 0
Route 6: 0 52 88 68 27 59 44 87 79 7 51 95 72 0
Route 7: 0 54 64 5 65 20 41 63 4 0
Route 8: 0 28 92 14 47 45 77 76 38 13 24 55 60 0
Route 9: 0 81 56 91 8 96 6 78 85 71 0
Route 10: 0 35 3 74 86 67 33 62 29 97 84 17 0
Route 11: 0 49 50 0
